
Gurobi 12.0.2 (win64) logging started Thu Nov 20 21:51:07 2025

Set parameter LogFile to value "resultados DATA_1_n30m10b2d1\instancia_7_log.txt"
Set parameter TimeLimit to value 3600
Gurobi Optimizer version 12.0.2 build v12.0.2rc0 (win64 - Windows 10.0 (19045.2))

CPU model: Intel(R) Core(TM) i5-6300U CPU @ 2.40GHz, instruction set [SSE2|AVX|AVX2]
Thread count: 2 physical cores, 4 logical processors, using up to 4 threads

Non-default parameters:
TimeLimit  3600

Optimize a model with 12660 rows, 59721 columns and 20036639 nonzeros
Model fingerprint: 0xe9bfaaa0
Variable types: 0 continuous, 59721 integer (59721 binary)
Coefficient statistics:
  Matrix range     [1e+00, 1e+00]
  Objective range  [8e-03, 6e-02]
  Bounds range     [1e+00, 1e+00]
  RHS range        [1e+00, 8e+01]
Found heuristic solution: objective 0.8724074
Presolve removed 0 rows and 0 columns (presolve time = 6s)...
Presolve removed 0 rows and 0 columns (presolve time = 11s)...
Presolve removed 0 rows and 1727 columns (presolve time = 15s)...
Presolve removed 0 rows and 4958 columns (presolve time = 20s)...
Presolve removed 0 rows and 14640 columns (presolve time = 25s)...
Presolve removed 0 rows and 19292 columns (presolve time = 30s)...
Presolve removed 0 rows and 20538 columns (presolve time = 35s)...
Presolve removed 0 rows and 20538 columns (presolve time = 40s)...
Presolve removed 0 rows and 20538 columns (presolve time = 45s)...
Presolve removed 0 rows and 20538 columns (presolve time = 50s)...
Presolve removed 0 rows and 20538 columns (presolve time = 55s)...
Presolve removed 543 rows and 20538 columns (presolve time = 60s)...
Presolve removed 543 rows and 20722 columns (presolve time = 65s)...
Presolve removed 543 rows and 21005 columns (presolve time = 70s)...
Presolve removed 543 rows and 21168 columns (presolve time = 75s)...
Presolve removed 543 rows and 21259 columns (presolve time = 81s)...
Presolve removed 543 rows and 21259 columns (presolve time = 85s)...
Presolve removed 560 rows and 21259 columns (presolve time = 91s)...
Presolve removed 560 rows and 21259 columns (presolve time = 96s)...
Presolve removed 560 rows and 21259 columns (presolve time = 100s)...
Presolve removed 560 rows and 21259 columns (presolve time = 105s)...
Presolve removed 568 rows and 21259 columns (presolve time = 111s)...
Presolve removed 568 rows and 21259 columns (presolve time = 115s)...
Presolve removed 568 rows and 21259 columns (presolve time = 120s)...
Presolve removed 568 rows and 21259 columns (presolve time = 125s)...
Presolve removed 568 rows and 21259 columns (presolve time = 130s)...
Presolve removed 568 rows and 21259 columns (presolve time = 135s)...
Presolve removed 568 rows and 21259 columns (presolve time = 140s)...
Presolve removed 568 rows and 21259 columns (presolve time = 145s)...
Presolve removed 568 rows and 21259 columns (presolve time = 150s)...
Presolve removed 568 rows and 21259 columns (presolve time = 155s)...
Presolve removed 568 rows and 21259 columns (presolve time = 160s)...
Presolve removed 568 rows and 21259 columns (presolve time = 165s)...
Presolve removed 568 rows and 21259 columns (presolve time = 170s)...
Presolve removed 568 rows and 21259 columns (presolve time = 175s)...
Presolve removed 568 rows and 21259 columns (presolve time = 180s)...
Presolve removed 568 rows and 21259 columns (presolve time = 185s)...
Presolve removed 568 rows and 21259 columns (presolve time = 190s)...
Presolve removed 568 rows and 21259 columns (presolve time = 195s)...
Presolve removed 568 rows and 21259 columns (presolve time = 200s)...
Presolve removed 568 rows and 21259 columns (presolve time = 205s)...
Presolve removed 568 rows and 21259 columns (presolve time = 210s)...
Presolve removed 568 rows and 21259 columns (presolve time = 215s)...
Presolve removed 568 rows and 21259 columns (presolve time = 220s)...
Presolve removed 568 rows and 21259 columns (presolve time = 225s)...
Presolve removed 568 rows and 21259 columns (presolve time = 230s)...
Presolve removed 568 rows and 21259 columns (presolve time = 235s)...
Presolve removed 568 rows and 21259 columns (presolve time = 240s)...
Presolve removed 568 rows and 21259 columns (presolve time = 245s)...
Presolve removed 568 rows and 21259 columns (presolve time = 250s)...
Presolve removed 568 rows and 21259 columns (presolve time = 255s)...
Presolve removed 568 rows and 21259 columns (presolve time = 260s)...
Presolve removed 568 rows and 21259 columns (presolve time = 265s)...
Presolve removed 568 rows and 21259 columns (presolve time = 270s)...
Presolve removed 568 rows and 21259 columns (presolve time = 275s)...
Presolve removed 568 rows and 21259 columns (presolve time = 280s)...
Presolve removed 568 rows and 21259 columns (presolve time = 285s)...
Presolve removed 568 rows and 21259 columns (presolve time = 290s)...
Presolve removed 568 rows and 21259 columns (presolve time = 295s)...
Presolve removed 568 rows and 21259 columns (presolve time = 300s)...
Presolve removed 568 rows and 21259 columns (presolve time = 305s)...
Presolve removed 568 rows and 21259 columns (presolve time = 310s)...
Presolve removed 568 rows and 21259 columns (presolve time = 315s)...
Presolve removed 568 rows and 21259 columns (presolve time = 320s)...
Presolve removed 568 rows and 21259 columns (presolve time = 325s)...
Presolve removed 568 rows and 21259 columns (presolve time = 330s)...
Presolve removed 568 rows and 21259 columns (presolve time = 335s)...
Presolve removed 568 rows and 21259 columns (presolve time = 340s)...
Presolve removed 568 rows and 21259 columns (presolve time = 345s)...
Presolve removed 568 rows and 21259 columns (presolve time = 350s)...
Presolve removed 568 rows and 21259 columns (presolve time = 355s)...
Presolve removed 568 rows and 21259 columns (presolve time = 360s)...
Presolve removed 568 rows and 21259 columns (presolve time = 365s)...
Presolve removed 568 rows and 21259 columns (presolve time = 370s)...
Presolve removed 568 rows and 21259 columns (presolve time = 375s)...
Presolve removed 568 rows and 21259 columns (presolve time = 380s)...
Presolve removed 568 rows and 21259 columns (presolve time = 385s)...
Presolve removed 568 rows and 21259 columns (presolve time = 390s)...
Presolve removed 568 rows and 21259 columns (presolve time = 395s)...
Presolve removed 568 rows and 21259 columns (presolve time = 400s)...
Presolve removed 568 rows and 21259 columns (presolve time = 405s)...
Presolve removed 568 rows and 21259 columns (presolve time = 410s)...
Presolve removed 568 rows and 21259 columns (presolve time = 415s)...
Presolve removed 568 rows and 21259 columns (presolve time = 420s)...
Presolve removed 568 rows and 21259 columns (presolve time = 425s)...
Presolve removed 568 rows and 21259 columns (presolve time = 431s)...
Presolve removed 568 rows and 21259 columns
Presolve time: 430.62s
Presolved: 12092 rows, 38462 columns, 12743248 nonzeros
Found heuristic solution: objective 0.6995926
Variable types: 0 continuous, 38462 integer (38462 binary)
Deterministic concurrent LP optimizer: dual simplex and barrier
Showing barrier log only...

Root barrier log...

Ordering time: 5.63s

Barrier statistics:
 AA' NZ     : 2.930e+07
 Factor NZ  : 5.770e+07 (roughly 500 MB of memory)
 Factor Ops : 3.342e+11 (roughly 40 seconds per iteration)
 Threads    : 1

                  Objective                Residual
Iter       Primal          Dual         Primal    Dual     Compl     Time
   0   7.73342301e+03  1.56194370e+00  6.46e+04 1.38e-03  4.12e-01   535s
   1   6.18669913e+02  1.37712270e+01  5.25e+03 9.38e-04  2.75e-02   576s
   2   4.19386644e+01  1.11940068e+01  3.93e+02 1.10e-05  2.19e-03   621s
   3   6.61550139e+00  6.69978279e+00  5.20e+01 0.00e+00  3.23e-04   661s
   4   3.76409111e+00  4.31486733e+00  2.65e+01 0.00e+00  1.69e-04   703s
   5   3.65011210e+00  4.19299141e+00  2.54e+01 0.00e+00  1.56e-04   745s
   6   1.50752008e+00  3.68688295e+00  6.30e+00 0.00e+00  6.16e-05   790s
   7   9.46037184e-01  2.19106556e+00  8.37e-01 0.00e+00  1.77e-05   834s
   8   9.29043272e-01  1.37757809e+00  2.12e-01 0.00e+00  5.61e-06   864s
   9   9.49656985e-01  1.08959624e+00  8.38e-02 0.00e+00  1.73e-06   895s
  10   9.74485024e-01  1.01651534e+00  1.56e-02 0.00e+00  5.02e-07   929s
  11   9.85655212e-01  1.00392473e+00  4.20e-03 0.00e+00  2.14e-07   960s
  12   9.89656188e-01  9.99337845e-01  2.07e-03 0.00e+00  1.13e-07   992s
  13   9.91550816e-01  9.97708599e-01  1.29e-03 0.00e+00  7.20e-08  1021s
  14   9.93408069e-01  9.96842343e-01  6.69e-04 0.00e+00  4.02e-08  1051s
  15   9.95327313e-01  9.96158169e-01  8.14e-05 0.00e+00  9.56e-09  1084s
  16   9.95759096e-01  9.96005008e-01  1.46e-05 0.00e+00  2.81e-09  1114s
  17   9.95774749e-01  9.95970074e-01  1.31e-05 0.00e+00  2.24e-09  1143s
  18   9.95895614e-01  9.95929157e-01  1.38e-06 0.00e+00  3.81e-10  1174s
  19   9.95912027e-01  9.95919636e-01  1.93e-07 0.00e+00  8.64e-11  1206s
  20   9.95914390e-01  9.95918363e-01  1.01e-07 0.00e+00  4.51e-11  1235s
  21   9.95916462e-01  9.95917572e-01  1.99e-08 0.00e+00  1.26e-11  1268s
  22   9.95916850e-01  9.95917278e-01  7.80e-09 0.00e+00  4.85e-12  1298s
  23   9.95917152e-01  9.95917177e-01  2.72e-09 1.65e-16  2.79e-13  1331s
  24   9.95917152e-01  9.95917177e-01  2.15e-08 1.13e-16  2.78e-13  1361s
  25   9.95917152e-01  9.95917177e-01  2.41e-08 1.08e-16  2.76e-13  1391s
  26   9.95917153e-01  9.95917176e-01  3.78e-08 8.67e-17  2.70e-13  1420s

Barrier solved model in 26 iterations and 1420.36 seconds (675.35 work units)
Optimal objective 9.95917153e-01


Root crossover log...

    8998 variables added to crossover basis                     1425s
    9584 variables added to crossover basis                     1430s
   10072 variables added to crossover basis                     1435s
   10302 variables added to crossover basis                     1440s
   10603 variables added to crossover basis                     1445s

    5893 DPushes remaining with DInf 0.0000000e+00              1447s
    5769 DPushes remaining with DInf 0.0000000e+00              1451s
    5496 DPushes remaining with DInf 0.0000000e+00              1457s
    5341 DPushes remaining with DInf 0.0000000e+00              1461s
    5036 DPushes remaining with DInf 0.0000000e+00              1468s
    4894 DPushes remaining with DInf 0.0000000e+00              1471s
    4583 DPushes remaining with DInf 0.0000000e+00              1478s
    4421 DPushes remaining with DInf 0.0000000e+00              1481s
    4015 DPushes remaining with DInf 6.6712421e-02              1489s
    3800 DPushes remaining with DInf 6.9971800e-02              1494s
    3554 DPushes remaining with DInf 1.2085379e+00              1499s
    3358 DPushes remaining with DInf 1.2341489e+00              1503s
    3158 DPushes remaining with DInf 1.2439787e+00              1509s
    2954 DPushes remaining with DInf 1.2911408e+00              1515s
    2752 DPushes remaining with DInf 2.5559779e+00              1520s
    2568 DPushes remaining with DInf 7.8949286e+00              1526s
    2377 DPushes remaining with DInf 1.2397507e+01              1532s
    2201 DPushes remaining with DInf 1.8549715e+01              1537s
    2023 DPushes remaining with DInf 2.4435124e+01              1543s
    1849 DPushes remaining with DInf 2.4496510e+01              1549s
    1677 DPushes remaining with DInf 2.6054869e+01              1554s
    1507 DPushes remaining with DInf 2.7310949e+01              1560s
    1348 DPushes remaining with DInf 3.5471348e+01              1566s
    1202 DPushes remaining with DInf 3.6647582e+01              1572s
    1054 DPushes remaining with DInf 4.6349819e+01              1579s
     908 DPushes remaining with DInf 6.0275890e+01              1586s
     751 DPushes remaining with DInf 6.8062656e+01              1593s
     597 DPushes remaining with DInf 7.1954854e+01              1602s
     442 DPushes remaining with DInf 8.8034126e+01              1611s
     286 DPushes remaining with DInf 8.1545077e+01              1621s
     124 DPushes remaining with DInf 8.8572622e+01              1630s
       0 DPushes remaining with DInf 7.8649350e+01              1638s

    1097 PPushes remaining with PInf 2.1819379e-02              1638s
     843 PPushes remaining with PInf 2.3233231e+00              1648s
     592 PPushes remaining with PInf 2.4337507e+00              1656s
     396 PPushes remaining with PInf 2.3411132e+00              1665s
     187 PPushes remaining with PInf 2.5612687e+00              1675s
       2 PPushes remaining with PInf 1.5056577e+01              1683s
       0 PPushes remaining with PInf 1.5004657e+01              1686s

  Push phase complete: Pinf 1.5004657e+01, Dinf 1.7006190e+04   1686s


Root simplex log...

Iteration    Objective       Primal Inf.    Dual Inf.      Time
    5930    9.9591510e-01   0.000000e+00   1.700619e+04   1690s
    6085    9.9591510e-01   0.000000e+00   8.077780e+01   1698s
    6195    9.9591512e-01   0.000000e+00   2.447006e+02   1720s
    6295    9.9591519e-01   0.000000e+00   7.829847e+02   1740s
    6395    9.9591529e-01   0.000000e+00   5.195576e+02   1761s
    6545    9.9591555e-01   0.000000e+00   1.202122e+02   1792s
    6645    9.9591574e-01   0.000000e+00   1.873802e+02   1814s
    6745    9.9591595e-01   0.000000e+00   4.020091e+02   1836s
    6845    9.9591622e-01   0.000000e+00   1.987445e+02   1861s
    6945    9.9591647e-01   0.000000e+00   2.228585e+02   1885s
    7045    9.9591673e-01   0.000000e+00   1.138736e+02   1908s
    7145    9.9591707e-01   0.000000e+00   2.448311e+02   1932s
    7245    9.9591732e-01   0.000000e+00   2.386497e+02   1955s
    7345    9.9591755e-01   0.000000e+00   2.308835e+02   1979s
    7445    9.9591771e-01   0.000000e+00   3.480828e+02   2002s
    7545    9.9591788e-01   0.000000e+00   3.192943e+02   2026s
    7645    9.9591811e-01   0.000000e+00   2.685818e+02   2051s
    7745    9.9591831e-01   0.000000e+00   1.164928e+03   2075s
    7845    9.9591855e-01   0.000000e+00   3.810037e+02   2099s
    7945    9.9591877e-01   0.000000e+00   4.400387e+02   2125s
    8045    9.9591896e-01   0.000000e+00   8.010497e+02   2150s
    8145    9.9591918e-01   0.000000e+00   6.259296e+02   2177s
    8245    9.9591936e-01   0.000000e+00   5.092090e+02   2202s
    8345    9.9591958e-01   0.000000e+00   7.390686e+02   2229s
    8445    9.9591998e-01   0.000000e+00   1.782750e+02   2262s
    8545    9.9592023e-01   0.000000e+00   1.856519e+02   2291s
    8645    9.9592058e-01   0.000000e+00   3.870805e+02   2317s
    8745    9.9592080e-01   0.000000e+00   2.309296e+02   2342s
    8845    9.9592109e-01   0.000000e+00   3.686473e+02   2367s
    8945    9.9592143e-01   0.000000e+00   7.250056e+02   2393s
    9045    9.9592177e-01   0.000000e+00   9.508063e+02   2420s
    9165    9.9592221e-01   0.000000e+00   1.020720e+03   2451s
    9265    9.9592245e-01   0.000000e+00   4.262489e+02   2477s
    9375    9.9592281e-01   0.000000e+00   1.461473e+03   2504s
    9525    9.9592329e-01   0.000000e+00   1.114324e+03   2544s
    9675    9.9592390e-01   0.000000e+00   1.139981e+03   2584s
    9825    9.9592449e-01   0.000000e+00   4.657109e+02   2626s
    9935    9.9592483e-01   0.000000e+00   4.564296e+02   2655s
   10045    9.9592516e-01   0.000000e+00   3.140102e+02   2685s
   10165    9.9592551e-01   0.000000e+00   3.685811e+02   2715s
   10275    9.9592583e-01   0.000000e+00   3.479762e+02   2742s
   10385    9.9592622e-01   0.000000e+00   7.436665e+02   2771s
   10485    9.9592663e-01   0.000000e+00   3.503740e+02   2796s
   10585    9.9592697e-01   0.000000e+00   3.079650e+02   2821s
   10695    9.9592736e-01   0.000000e+00   5.433989e+02   2849s
   10805    9.9592785e-01   0.000000e+00   5.355981e+02   2876s
   10905    9.9592822e-01   0.000000e+00   7.148910e+02   2902s
   11015    9.9592861e-01   0.000000e+00   2.564111e+02   2929s
   11125    9.9592908e-01   0.000000e+00   2.706588e+02   2956s
   11245    9.9592957e-01   0.000000e+00   1.577478e+03   2986s
   11365    9.9593003e-01   0.000000e+00   2.520477e+02   3015s
   11485    9.9593048e-01   0.000000e+00   9.065824e+02   3044s
   11605    9.9593100e-01   0.000000e+00   5.705323e+02   3073s
   11705    9.9593143e-01   0.000000e+00   3.684129e+02   3100s
   11815    9.9593176e-01   0.000000e+00   3.190865e+03   3127s
   11935    9.9593232e-01   0.000000e+00   4.385225e+02   3156s
   12055    9.9593289e-01   0.000000e+00   3.985863e+02   3186s
   12175    9.9593341e-01   0.000000e+00   3.589953e+02   3214s
   12285    9.9593391e-01   0.000000e+00   9.624600e+02   3248s
   12385    9.9593434e-01   0.000000e+00   4.047650e+02   3286s
   12485    9.9593465e-01   0.000000e+00   1.000802e+03   3322s
   12595    9.9593514e-01   0.000000e+00   4.019722e+02   3360s
   12715    9.9593568e-01   0.000000e+00   7.625457e+02   3399s
   12835    9.9593618e-01   0.000000e+00   3.413325e+02   3439s
   12945    9.9593667e-01   0.000000e+00   1.521686e+03   3480s
   13095    9.9593740e-01   0.000000e+00   6.021199e+02   3535s
   13205    9.9593794e-01   0.000000e+00   3.701404e+02   3572s


Root relaxation: time limit, 13306 iterations, 3163.34 seconds (2186.23 work units)

    Nodes    |    Current Node    |     Objective Bounds      |     Work
 Expl Unexpl |  Obj  Depth IntInf | Incumbent    BestBd   Gap | It/Node Time

     0     0          -    0         0.87241  605.77796      -     - 3600s

Explored 1 nodes (13306 simplex iterations) in 3601.00 seconds (2277.16 work units)
Thread count was 4 (of 4 available processors)

Solution count 2: 0.872407 0.699593 

Time limit reached
Best objective 8.724074074074e-01, best bound 6.057779629629e+02, gap 69337.5080%
